c "random instance"
p edges 150 2218
e 1 4
e 1 8
e 1 15
e 1 25
e 1 26
e 1 28
e 1 30
e 1 40
e 1 43
e 1 60
e 1 61
e 1 62
e 1 64
e 1 70
e 1 79
e 1 80
e 1 81
e 1 85
e 1 87
e 1 94
e 1 95
e 1 97
e 1 98
e 1 104
e 1 105
e 1 112
e 1 130
e 1 143
e 1 148
e 1 150
e 2 3
e 2 16
e 2 21
e 2 23
e 2 28
e 2 32
e 2 36
e 2 37
e 2 41
e 2 42
e 2 47
e 2 55
e 2 61
e 2 62
e 2 82
e 2 90
e 2 92
e 2 100
e 2 101
e 2 104
e 2 105
e 2 109
e 2 114
e 2 118
e 2 126
e 2 129
e 2 134
e 2 136
e 2 139
e 2 144
e 2 145
e 2 147
e 2 149
e 3 8
e 3 13
e 3 25
e 3 28
e 3 32
e 3 35
e 3 38
e 3 40
e 3 41
e 3 53
e 3 57
e 3 68
e 3 75
e 3 76
e 3 80
e 3 85
e 3 91
e 3 95
e 3 99
e 3 108
e 3 111
e 3 113
e 3 114
e 3 122
e 3 128
e 3 139
e 4 10
e 4 14
e 4 16
e 4 18
e 4 26
e 4 28
e 4 30
e 4 35
e 4 51
e 4 61
e 4 62
e 4 73
e 4 76
e 4 83
e 4 93
e 4 94
e 4 98
e 4 104
e 4 107
e 4 121
e 4 122
e 4 127
e 4 132
e 4 136
e 4 137
e 4 138
e 4 140
e 5 9
e 5 11
e 5 14
e 5 18
e 5 19
e 5 24
e 5 33
e 5 47
e 5 52
e 5 54
e 5 58
e 5 68
e 5 74
e 5 77
e 5 83
e 5 88
e 5 95
e 5 101
e 5 105
e 5 109
e 5 115
e 5 116
e 5 117
e 5 119
e 5 133
e 5 137
e 5 148
e 5 150
e 6 7
e 6 9
e 6 12
e 6 13
e 6 16
e 6 20
e 6 21
e 6 28
e 6 46
e 6 51
e 6 65
e 6 71
e 6 80
e 6 82
e 6 84
e 6 91
e 6 94
e 6 96
e 6 98
e 6 99
e 6 100
e 6 105
e 6 112
e 6 121
e 6 123
e 6 125
e 6 127
e 6 141
e 6 142
e 6 144
e 6 149
e 7 10
e 7 22
e 7 26
e 7 33
e 7 38
e 7 42
e 7 45
e 7 51
e 7 60
e 7 61
e 7 64
e 7 65
e 7 69
e 7 79
e 7 81
e 7 84
e 7 90
e 7 96
e 7 103
e 7 107
e 7 108
e 7 125
e 7 132
e 7 137
e 7 140
e 7 142
e 7 144
e 7 146
e 7 148
e 8 19
e 8 20
e 8 21
e 8 23
e 8 30
e 8 33
e 8 40
e 8 41
e 8 49
e 8 50
e 8 57
e 8 59
e 8 62
e 8 73
e 8 75
e 8 77
e 8 78
e 8 95
e 8 96
e 8 97
e 8 101
e 8 105
e 8 107
e 8 113
e 8 114
e 8 120
e 8 132
e 8 134
e 8 139
e 8 141
e 8 148
e 9 28
e 9 34
e 9 37
e 9 41
e 9 48
e 9 49
e 9 64
e 9 70
e 9 72
e 9 76
e 9 77
e 9 79
e 9 82
e 9 85
e 9 92
e 9 99
e 9 103
e 9 110
e 9 111
e 9 117
e 9 121
e 9 127
e 9 128
e 9 133
e 9 137
e 9 143
e 10 11
e 10 26
e 10 33
e 10 36
e 10 37
e 10 48
e 10 51
e 10 53
e 10 64
e 10 68
e 10 69
e 10 76
e 10 81
e 10 85
e 10 103
e 10 109
e 10 110
e 10 114
e 10 115
e 10 118
e 10 124
e 10 129
e 10 131
e 10 136
e 10 140
e 10 148
e 11 12
e 11 18
e 11 20
e 11 31
e 11 33
e 11 40
e 11 50
e 11 53
e 11 62
e 11 64
e 11 66
e 11 71
e 11 72
e 11 76
e 11 78
e 11 80
e 11 95
e 11 100
e 11 111
e 11 112
e 11 120
e 11 126
e 11 133
e 11 149
e 12 13
e 12 15
e 12 17
e 12 18
e 12 20
e 12 23
e 12 29
e 12 35
e 12 36
e 12 38
e 12 41
e 12 45
e 12 46
e 12 47
e 12 51
e 12 54
e 12 55
e 12 56
e 12 57
e 12 66
e 12 70
e 12 78
e 12 79
e 12 80
e 12 90
e 12 95
e 12 96
e 12 97
e 12 102
e 12 105
e 12 107
e 12 112
e 12 127
e 12 133
e 12 138
e 12 145
e 13 17
e 13 23
e 13 24
e 13 25
e 13 32
e 13 34
e 13 43
e 13 47
e 13 48
e 13 49
e 13 60
e 13 62
e 13 72
e 13 73
e 13 75
e 13 79
e 13 86
e 13 87
e 13 94
e 13 95
e 13 99
e 13 100
e 13 102
e 13 115
e 13 118
e 13 119
e 13 121
e 13 123
e 13 146
e 14 26
e 14 38
e 14 42
e 14 45
e 14 52
e 14 68
e 14 74
e 14 76
e 14 80
e 14 81
e 14 87
e 14 90
e 14 91
e 14 97
e 14 99
e 14 108
e 14 117
e 14 132
e 14 144
e 15 16
e 15 23
e 15 30
e 15 32
e 15 34
e 15 35
e 15 38
e 15 39
e 15 41
e 15 73
e 15 76
e 15 82
e 15 84
e 15 87
e 15 93
e 15 94
e 15 104
e 15 113
e 15 116
e 15 125
e 15 126
e 15 139
e 15 150
e 16 22
e 16 23
e 16 31
e 16 49
e 16 54
e 16 56
e 16 58
e 16 59
e 16 73
e 16 75
e 16 77
e 16 80
e 16 85
e 16 90
e 16 92
e 16 99
e 16 106
e 16 110
e 16 114
e 16 115
e 16 120
e 16 122
e 16 124
e 16 129
e 16 132
e 16 139
e 16 140
e 16 142
e 16 149
e 17 19
e 17 21
e 17 25
e 17 43
e 17 48
e 17 53
e 17 55
e 17 63
e 17 65
e 17 68
e 17 71
e 17 79
e 17 88
e 17 92
e 17 94
e 17 99
e 17 105
e 17 115
e 17 126
e 17 135
e 17 137
e 17 142
e 17 143
e 17 147
e 17 148
e 17 150
e 18 21
e 18 22
e 18 23
e 18 27
e 18 33
e 18 46
e 18 49
e 18 54
e 18 57
e 18 74
e 18 76
e 18 78
e 18 80
e 18 85
e 18 93
e 18 97
e 18 100
e 18 106
e 18 110
e 18 113
e 18 114
e 18 120
e 18 125
e 18 130
e 18 142
e 18 144
e 18 148
e 18 149
e 19 22
e 19 24
e 19 25
e 19 33
e 19 38
e 19 40
e 19 49
e 19 53
e 19 62
e 19 63
e 19 66
e 19 73
e 19 74
e 19 79
e 19 80
e 19 102
e 19 110
e 19 111
e 19 112
e 19 117
e 19 126
e 19 127
e 19 131
e 19 133
e 19 140
e 19 146
e 20 26
e 20 29
e 20 32
e 20 36
e 20 37
e 20 38
e 20 42
e 20 44
e 20 46
e 20 70
e 20 80
e 20 85
e 20 88
e 20 103
e 20 105
e 20 109
e 20 111
e 20 114
e 20 117
e 20 125
e 20 137
e 20 148
e 21 23
e 21 27
e 21 29
e 21 32
e 21 35
e 21 44
e 21 48
e 21 51
e 21 54
e 21 57
e 21 61
e 21 64
e 21 65
e 21 67
e 21 72
e 21 74
e 21 78
e 21 86
e 21 94
e 21 99
e 21 104
e 21 106
e 21 114
e 21 128
e 21 132
e 21 139
e 21 140
e 21 145
e 21 147
e 21 148
e 21 149
e 22 32
e 22 35
e 22 39
e 22 45
e 22 49
e 22 50
e 22 52
e 22 53
e 22 56
e 22 67
e 22 68
e 22 73
e 22 74
e 22 76
e 22 79
e 22 81
e 22 85
e 22 95
e 22 111
e 22 114
e 22 116
e 22 117
e 22 120
e 22 122
e 22 126
e 22 127
e 22 130
e 22 139
e 23 24
e 23 34
e 23 43
e 23 44
e 23 45
e 23 50
e 23 52
e 23 54
e 23 57
e 23 74
e 23 76
e 23 80
e 23 81
e 23 94
e 23 97
e 23 99
e 23 111
e 23 113
e 23 115
e 23 120
e 23 129
e 23 134
e 23 141
e 24 25
e 24 28
e 24 29
e 24 31
e 24 37
e 24 41
e 24 43
e 24 45
e 24 46
e 24 58
e 24 70
e 24 71
e 24 77
e 24 78
e 24 85
e 24 94
e 24 95
e 24 96
e 24 97
e 24 99
e 24 106
e 24 110
e 24 111
e 24 116
e 24 127
e 24 129
e 24 132
e 24 133
e 24 137
e 24 141
e 24 145
e 24 150
e 25 27
e 25 35
e 25 47
e 25 58
e 25 59
e 25 70
e 25 73
e 25 74
e 25 77
e 25 81
e 25 94
e 25 96
e 25 105
e 25 107
e 25 110
e 25 112
e 25 114
e 25 123
e 25 126
e 25 129
e 25 131
e 25 132
e 25 138
e 25 140
e 25 145
e 25 147
e 26 29
e 26 34
e 26 36
e 26 42
e 26 44
e 26 48
e 26 51
e 26 52
e 26 53
e 26 64
e 26 65
e 26 78
e 26 83
e 26 88
e 26 90
e 26 99
e 26 102
e 26 111
e 26 113
e 26 116
e 26 119
e 26 131
e 26 134
e 26 139
e 26 141
e 26 147
e 26 149
e 27 39
e 27 40
e 27 45
e 27 48
e 27 50
e 27 51
e 27 52
e 27 56
e 27 59
e 27 74
e 27 76
e 27 79
e 27 84
e 27 85
e 27 86
e 27 95
e 27 99
e 27 106
e 27 113
e 27 117
e 27 118
e 27 125
e 27 139
e 27 141
e 27 144
e 27 149
e 28 42
e 28 44
e 28 45
e 28 50
e 28 57
e 28 58
e 28 60
e 28 69
e 28 79
e 28 82
e 28 84
e 28 85
e 28 89
e 28 91
e 28 95
e 28 99
e 28 106
e 28 108
e 28 110
e 28 114
e 28 115
e 28 121
e 28 122
e 28 134
e 28 136
e 28 139
e 28 144
e 29 31
e 29 37
e 29 38
e 29 43
e 29 55
e 29 56
e 29 58
e 29 60
e 29 61
e 29 63
e 29 66
e 29 70
e 29 83
e 29 84
e 29 88
e 29 89
e 29 98
e 29 105
e 29 110
e 29 116
e 29 117
e 29 118
e 29 120
e 29 127
e 29 136
e 29 139
e 29 140
e 29 141
e 29 145
e 30 36
e 30 40
e 30 46
e 30 47
e 30 65
e 30 66
e 30 79
e 30 85
e 30 90
e 30 94
e 30 101
e 30 107
e 30 109
e 30 110
e 30 117
e 30 118
e 30 119
e 30 120
e 30 123
e 30 134
e 30 140
e 30 142
e 30 144
e 30 148
e 31 33
e 31 34
e 31 60
e 31 61
e 31 67
e 31 72
e 31 91
e 31 92
e 31 93
e 31 94
e 31 102
e 31 109
e 31 118
e 31 129
e 31 142
e 31 144
e 31 149
e 32 47
e 32 54
e 32 55
e 32 58
e 32 59
e 32 67
e 32 68
e 32 69
e 32 72
e 32 73
e 32 75
e 32 76
e 32 77
e 32 79
e 32 80
e 32 82
e 32 86
e 32 110
e 32 119
e 32 121
e 32 124
e 32 146
e 32 149
e 33 41
e 33 45
e 33 53
e 33 57
e 33 61
e 33 62
e 33 64
e 33 68
e 33 71
e 33 83
e 33 95
e 33 96
e 33 100
e 33 109
e 33 110
e 33 111
e 33 134
e 33 135
e 33 147
e 33 149
e 34 43
e 34 50
e 34 62
e 34 64
e 34 66
e 34 67
e 34 75
e 34 77
e 34 89
e 34 90
e 34 99
e 34 101
e 34 104
e 34 106
e 34 108
e 34 110
e 34 114
e 34 125
e 34 135
e 34 143
e 34 144
e 34 146
e 34 147
e 35 38
e 35 41
e 35 42
e 35 43
e 35 50
e 35 52
e 35 59
e 35 62
e 35 63
e 35 88
e 35 91
e 35 99
e 35 102
e 35 108
e 35 113
e 35 115
e 35 116
e 35 120
e 35 128
e 35 134
e 35 144
e 36 37
e 36 38
e 36 41
e 36 48
e 36 56
e 36 57
e 36 59
e 36 77
e 36 95
e 36 112
e 36 119
e 36 125
e 36 131
e 36 132
e 36 134
e 36 138
e 36 140
e 36 145
e 37 47
e 37 51
e 37 55
e 37 63
e 37 66
e 37 68
e 37 70
e 37 80
e 37 87
e 37 101
e 37 116
e 37 117
e 37 126
e 37 127
e 37 129
e 37 137
e 37 143
e 37 146
e 37 148
e 37 150
e 38 47
e 38 48
e 38 49
e 38 54
e 38 56
e 38 63
e 38 64
e 38 65
e 38 78
e 38 96
e 38 99
e 38 103
e 38 104
e 38 105
e 38 108
e 38 111
e 38 115
e 38 117
e 38 121
e 38 123
e 38 127
e 38 136
e 38 143
e 38 147
e 38 149
e 39 42
e 39 65
e 39 69
e 39 77
e 39 81
e 39 82
e 39 90
e 39 93
e 39 94
e 39 97
e 39 99
e 39 102
e 39 110
e 39 113
e 39 116
e 39 117
e 39 118
e 39 119
e 39 121
e 39 128
e 39 139
e 39 142
e 39 147
e 39 150
e 40 41
e 40 42
e 40 45
e 40 47
e 40 51
e 40 55
e 40 73
e 40 74
e 40 75
e 40 81
e 40 90
e 40 94
e 40 96
e 40 100
e 40 106
e 40 121
e 40 127
e 40 139
e 40 141
e 40 144
e 40 146
e 40 149
e 41 45
e 41 47
e 41 48
e 41 50
e 41 52
e 41 54
e 41 78
e 41 90
e 41 91
e 41 103
e 41 106
e 41 114
e 41 118
e 41 119
e 41 121
e 41 136
e 41 144
e 41 147
e 42 46
e 42 58
e 42 59
e 42 67
e 42 74
e 42 86
e 42 96
e 42 104
e 42 111
e 42 117
e 42 122
e 42 126
e 42 132
e 42 139
e 42 141
e 42 147
e 42 148
e 43 45
e 43 46
e 43 62
e 43 63
e 43 74
e 43 78
e 43 80
e 43 84
e 43 94
e 43 103
e 43 110
e 43 114
e 43 128
e 43 135
e 43 138
e 43 139
e 43 144
e 44 45
e 44 49
e 44 52
e 44 56
e 44 58
e 44 59
e 44 63
e 44 64
e 44 72
e 44 74
e 44 83
e 44 85
e 44 88
e 44 90
e 44 97
e 44 98
e 44 109
e 44 112
e 44 122
e 44 123
e 44 124
e 44 126
e 44 127
e 44 129
e 44 132
e 44 134
e 44 136
e 44 144
e 44 149
e 45 49
e 45 52
e 45 54
e 45 57
e 45 70
e 45 73
e 45 74
e 45 77
e 45 78
e 45 80
e 45 88
e 45 96
e 45 99
e 45 111
e 45 112
e 45 121
e 45 122
e 45 134
e 45 139
e 45 146
e 45 147
e 45 148
e 45 149
e 46 49
e 46 52
e 46 56
e 46 60
e 46 64
e 46 70
e 46 72
e 46 79
e 46 80
e 46 88
e 46 89
e 46 92
e 46 93
e 46 100
e 46 102
e 46 106
e 46 120
e 46 121
e 46 129
e 46 131
e 46 136
e 46 140
e 46 141
e 46 145
e 46 149
e 47 54
e 47 59
e 47 63
e 47 80
e 47 86
e 47 88
e 47 91
e 47 94
e 47 95
e 47 101
e 47 112
e 47 113
e 47 115
e 47 117
e 47 127
e 47 131
e 47 135
e 47 137
e 47 138
e 47 147
e 47 148
e 47 149
e 47 150
e 48 50
e 48 54
e 48 63
e 48 66
e 48 72
e 48 73
e 48 78
e 48 83
e 48 85
e 48 86
e 48 87
e 48 103
e 48 107
e 48 121
e 48 123
e 48 128
e 48 139
e 48 143
e 49 53
e 49 62
e 49 65
e 49 67
e 49 75
e 49 78
e 49 79
e 49 83
e 49 98
e 49 99
e 49 104
e 49 107
e 49 109
e 49 112
e 49 114
e 49 115
e 49 126
e 49 129
e 49 132
e 49 133
e 49 134
e 49 135
e 49 137
e 49 142
e 49 146
e 49 149
e 50 52
e 50 55
e 50 58
e 50 59
e 50 69
e 50 71
e 50 73
e 50 76
e 50 96
e 50 109
e 50 117
e 50 133
e 50 134
e 50 143
e 51 63
e 51 66
e 51 72
e 51 86
e 51 97
e 51 99
e 51 100
e 51 101
e 51 111
e 51 129
e 51 131
e 51 132
e 51 135
e 51 142
e 51 144
e 51 147
e 51 148
e 52 53
e 52 56
e 52 58
e 52 63
e 52 65
e 52 68
e 52 71
e 52 73
e 52 77
e 52 85
e 52 87
e 52 88
e 52 89
e 52 90
e 52 101
e 52 116
e 52 117
e 52 118
e 52 121
e 52 123
e 52 131
e 52 137
e 52 139
e 52 143
e 52 147
e 52 149
e 53 61
e 53 69
e 53 75
e 53 76
e 53 78
e 53 87
e 53 109
e 53 116
e 53 121
e 53 127
e 53 140
e 53 143
e 53 144
e 54 58
e 54 65
e 54 66
e 54 67
e 54 71
e 54 76
e 54 84
e 54 85
e 54 100
e 54 104
e 54 113
e 54 115
e 54 120
e 54 127
e 54 129
e 54 132
e 54 142
e 54 149
e 55 61
e 55 69
e 55 74
e 55 77
e 55 82
e 55 91
e 55 92
e 55 103
e 55 106
e 55 107
e 55 117
e 55 118
e 55 120
e 55 121
e 55 122
e 55 130
e 55 132
e 55 135
e 55 137
e 55 146
e 56 59
e 56 63
e 56 73
e 56 74
e 56 76
e 56 84
e 56 106
e 56 115
e 56 119
e 56 120
e 56 124
e 56 131
e 56 132
e 56 140
e 56 144
e 56 150
e 57 66
e 57 70
e 57 71
e 57 96
e 57 98
e 57 109
e 57 113
e 57 114
e 57 115
e 57 116
e 57 123
e 57 124
e 57 129
e 57 131
e 57 133
e 57 137
e 57 138
e 57 143
e 57 145
e 58 67
e 58 71
e 58 72
e 58 74
e 58 75
e 58 79
e 58 80
e 58 93
e 58 101
e 58 107
e 58 113
e 58 115
e 58 117
e 58 124
e 58 127
e 58 128
e 58 138
e 58 139
e 58 143
e 58 149
e 59 69
e 59 70
e 59 77
e 59 78
e 59 79
e 59 87
e 59 90
e 59 93
e 59 99
e 59 113
e 59 115
e 59 132
e 59 142
e 59 145
e 60 63
e 60 80
e 60 87
e 60 93
e 60 98
e 60 99
e 60 102
e 60 107
e 60 108
e 60 109
e 60 114
e 60 116
e 60 121
e 60 126
e 60 132
e 60 136
e 60 137
e 60 146
e 60 147
e 60 149
e 61 64
e 61 65
e 61 67
e 61 68
e 61 70
e 61 72
e 61 79
e 61 82
e 61 85
e 61 90
e 61 94
e 61 96
e 61 101
e 61 103
e 61 109
e 61 110
e 61 113
e 61 117
e 61 119
e 61 123
e 61 127
e 61 132
e 61 141
e 61 142
e 61 144
e 62 63
e 62 77
e 62 82
e 62 85
e 62 87
e 62 89
e 62 90
e 62 91
e 62 93
e 62 95
e 62 99
e 62 116
e 62 120
e 62 121
e 62 122
e 62 140
e 62 142
e 63 64
e 63 70
e 63 74
e 63 76
e 63 79
e 63 83
e 63 86
e 63 87
e 63 92
e 63 95
e 63 97
e 63 100
e 63 109
e 63 113
e 63 115
e 63 127
e 63 145
e 63 146
e 63 147
e 63 148
e 64 66
e 64 69
e 64 70
e 64 77
e 64 78
e 64 89
e 64 90
e 64 92
e 64 95
e 64 96
e 64 99
e 64 104
e 64 110
e 64 111
e 64 118
e 64 123
e 64 128
e 64 129
e 64 133
e 64 141
e 64 146
e 64 148
e 65 66
e 65 75
e 65 77
e 65 79
e 65 82
e 65 90
e 65 94
e 65 100
e 65 103
e 65 113
e 65 122
e 65 125
e 65 130
e 65 140
e 66 68
e 66 84
e 66 91
e 66 97
e 66 106
e 66 112
e 66 117
e 66 122
e 66 124
e 66 138
e 66 140
e 66 144
e 67 69
e 67 72
e 67 74
e 67 79
e 67 84
e 67 86
e 67 100
e 67 101
e 67 121
e 67 123
e 67 129
e 67 136
e 67 146
e 67 150
e 68 69
e 68 75
e 68 85
e 68 89
e 68 93
e 68 98
e 68 100
e 68 102
e 68 107
e 68 110
e 68 124
e 68 131
e 68 134
e 68 142
e 69 82
e 69 94
e 69 95
e 69 96
e 69 99
e 69 104
e 69 106
e 69 120
e 69 123
e 69 132
e 69 137
e 69 139
e 69 145
e 69 147
e 70 92
e 70 100
e 70 103
e 70 104
e 70 110
e 70 115
e 70 119
e 70 127
e 70 129
e 70 135
e 70 137
e 70 146
e 71 76
e 71 79
e 71 83
e 71 101
e 71 102
e 71 111
e 71 114
e 71 119
e 71 122
e 71 124
e 71 127
e 71 140
e 71 144
e 71 148
e 72 77
e 72 78
e 72 82
e 72 113
e 72 118
e 72 120
e 72 124
e 72 130
e 72 134
e 72 138
e 72 139
e 73 77
e 73 88
e 73 93
e 73 99
e 73 106
e 73 110
e 73 119
e 73 120
e 73 128
e 73 135
e 73 147
e 74 83
e 74 92
e 74 98
e 74 109
e 74 111
e 74 115
e 74 122
e 74 128
e 74 132
e 74 134
e 74 141
e 74 149
e 75 78
e 75 83
e 75 91
e 75 104
e 75 106
e 75 107
e 75 108
e 75 117
e 75 122
e 75 133
e 75 135
e 75 136
e 75 137
e 75 139
e 75 144
e 75 149
e 76 81
e 76 82
e 76 85
e 76 88
e 76 97
e 76 99
e 76 102
e 76 104
e 76 114
e 76 118
e 76 124
e 76 126
e 76 129
e 76 131
e 76 133
e 76 141
e 76 145
e 77 79
e 77 81
e 77 83
e 77 85
e 77 87
e 77 91
e 77 104
e 77 107
e 77 109
e 77 110
e 77 115
e 77 119
e 77 120
e 77 128
e 77 131
e 77 134
e 78 87
e 78 96
e 78 99
e 78 100
e 78 104
e 78 109
e 78 118
e 78 124
e 78 127
e 78 131
e 78 148
e 79 81
e 79 83
e 79 89
e 79 91
e 79 93
e 79 94
e 79 100
e 79 104
e 79 106
e 79 109
e 79 113
e 79 123
e 79 136
e 79 137
e 79 138
e 79 140
e 80 86
e 80 89
e 80 99
e 80 110
e 80 111
e 80 113
e 80 115
e 80 117
e 80 122
e 80 124
e 80 125
e 80 128
e 80 135
e 80 136
e 80 137
e 80 138
e 80 140
e 80 146
e 81 93
e 81 100
e 81 103
e 81 105
e 81 108
e 81 112
e 81 113
e 81 116
e 81 118
e 81 119
e 81 121
e 81 123
e 81 126
e 81 135
e 81 148
e 82 85
e 82 87
e 82 91
e 82 94
e 82 96
e 82 97
e 82 115
e 82 118
e 82 119
e 82 121
e 82 123
e 82 132
e 82 137
e 82 145
e 82 146
e 83 87
e 83 88
e 83 91
e 83 97
e 83 102
e 83 111
e 83 116
e 83 120
e 83 123
e 83 126
e 83 128
e 83 138
e 83 140
e 84 87
e 84 92
e 84 97
e 84 98
e 84 106
e 84 108
e 84 122
e 84 124
e 84 128
e 84 132
e 84 133
e 84 135
e 84 139
e 84 141
e 84 142
e 85 92
e 85 101
e 85 105
e 85 107
e 85 109
e 85 115
e 85 124
e 85 125
e 85 126
e 85 132
e 85 137
e 85 141
e 85 142
e 85 149
e 86 88
e 86 96
e 86 101
e 86 108
e 86 113
e 86 117
e 86 126
e 86 127
e 86 141
e 86 147
e 86 148
e 86 149
e 86 150
e 87 92
e 87 95
e 87 104
e 87 106
e 87 114
e 87 117
e 87 123
e 87 124
e 87 129
e 87 140
e 87 144
e 87 146
e 87 149
e 88 89
e 88 106
e 88 116
e 88 117
e 88 120
e 88 121
e 88 126
e 88 127
e 88 131
e 88 133
e 88 141
e 88 148
e 88 149
e 89 91
e 89 92
e 89 95
e 89 96
e 89 97
e 89 99
e 89 103
e 89 105
e 89 113
e 89 117
e 89 125
e 89 128
e 89 130
e 89 141
e 89 144
e 90 93
e 90 95
e 90 99
e 90 104
e 90 107
e 90 110
e 90 122
e 90 124
e 90 126
e 90 138
e 90 139
e 90 146
e 90 150
e 91 98
e 91 106
e 91 112
e 91 114
e 91 120
e 91 121
e 91 124
e 91 125
e 91 126
e 91 128
e 91 133
e 91 137
e 91 138
e 91 141
e 91 143
e 91 145
e 91 147
e 91 150
e 92 93
e 92 94
e 92 107
e 92 109
e 92 111
e 92 115
e 92 124
e 92 127
e 92 129
e 92 131
e 92 133
e 92 141
e 92 144
e 93 95
e 93 96
e 93 97
e 93 102
e 93 106
e 93 110
e 93 111
e 93 122
e 93 132
e 93 141
e 93 143
e 93 146
e 93 147
e 93 149
e 94 98
e 94 100
e 94 102
e 94 112
e 94 113
e 94 118
e 94 124
e 94 131
e 94 137
e 94 138
e 94 149
e 94 150
e 95 96
e 95 98
e 95 101
e 95 109
e 95 119
e 95 139
e 95 141
e 95 142
e 95 143
e 96 98
e 96 115
e 96 121
e 96 128
e 96 134
e 96 136
e 96 142
e 96 144
e 96 148
e 96 149
e 97 113
e 97 119
e 97 122
e 97 126
e 97 127
e 97 131
e 97 138
e 97 147
e 97 150
e 98 99
e 98 105
e 98 111
e 98 115
e 98 120
e 98 121
e 98 124
e 98 129
e 98 133
e 98 137
e 98 140
e 98 141
e 98 144
e 98 147
e 98 148
e 98 149
e 99 103
e 99 116
e 99 120
e 99 121
e 99 123
e 99 125
e 99 137
e 99 140
e 99 146
e 99 149
e 100 122
e 100 124
e 100 133
e 100 138
e 100 144
e 101 104
e 101 111
e 101 116
e 101 130
e 101 140
e 101 141
e 101 144
e 102 104
e 102 116
e 102 117
e 102 120
e 102 122
e 102 142
e 102 146
e 103 104
e 103 109
e 103 110
e 103 115
e 103 120
e 103 125
e 103 126
e 103 128
e 103 134
e 103 135
e 103 143
e 103 144
e 103 145
e 103 148
e 103 149
e 104 106
e 104 110
e 104 118
e 104 123
e 104 124
e 104 126
e 104 130
e 104 140
e 104 146
e 105 114
e 105 115
e 105 116
e 105 117
e 105 125
e 105 134
e 105 137
e 105 138
e 105 140
e 106 107
e 106 108
e 106 112
e 106 114
e 106 115
e 106 125
e 106 127
e 106 128
e 106 130
e 106 131
e 106 137
e 106 141
e 106 148
e 107 116
e 107 121
e 107 123
e 107 125
e 107 133
e 107 135
e 107 139
e 107 140
e 107 141
e 107 144
e 107 145
e 108 111
e 108 120
e 108 125
e 108 130
e 108 132
e 108 137
e 108 144
e 108 146
e 108 149
e 108 150
e 109 112
e 109 122
e 109 123
e 109 125
e 109 127
e 109 131
e 109 135
e 109 138
e 109 141
e 109 143
e 109 150
e 110 115
e 110 122
e 110 137
e 110 142
e 110 148
e 111 113
e 111 117
e 111 120
e 111 131
e 112 123
e 112 129
e 112 135
e 112 141
e 113 119
e 113 120
e 113 122
e 113 124
e 113 129
e 113 150
e 114 115
e 114 119
e 114 122
e 114 123
e 114 124
e 114 126
e 114 135
e 114 138
e 114 139
e 114 143
e 114 150
e 115 116
e 115 117
e 115 121
e 115 127
e 115 128
e 115 134
e 115 145
e 115 148
e 116 123
e 116 126
e 116 137
e 117 120
e 117 125
e 117 131
e 117 137
e 117 140
e 117 141
e 117 150
e 118 120
e 118 134
e 118 136
e 118 140
e 119 120
e 119 124
e 119 126
e 119 129
e 119 133
e 119 139
e 120 124
e 120 125
e 120 142
e 120 148
e 121 122
e 121 131
e 121 136
e 121 137
e 121 139
e 121 145
e 122 130
e 122 132
e 122 140
e 123 129
e 123 136
e 123 138
e 123 143
e 123 144
e 124 125
e 124 126
e 124 135
e 124 147
e 124 150
e 125 129
e 125 138
e 125 141
e 125 142
e 125 144
e 125 147
e 126 148
e 127 134
e 127 137
e 128 136
e 128 140
e 128 147
e 128 149
e 129 130
e 129 136
e 129 139
e 129 143
e 130 133
e 130 134
e 130 136
e 130 138
e 130 142
e 130 145
e 131 140
e 131 144
e 132 149
e 132 150
e 133 137
e 133 138
e 134 137
e 134 139
e 134 150
e 135 137
e 135 144
e 135 149
e 136 138
e 136 142
e 137 147
e 137 148
e 138 139
e 138 141
e 138 149
e 139 149
e 141 144
e 141 147
e 142 146
e 142 147
e 143 145
e 143 149
e 144 150
e 145 147
e 145 148
e 146 147
e 146 150
e 147 150
e 148 149
